
List of user-set options:

                                    Name   Value                used
                   hessian_approximation = limited-memory        yes
                           linear_solver = ma57                  yes
                  ma57_automatic_scaling = yes                   yes
                                max_iter = 150                   yes
                             mu_strategy = adaptive              yes
                             output_file = SPARTAN-CombinedIPOPTinfo.txt  yes
                             print_level = 5                     yes
                      print_user_options = yes                   yes
                                     tol = 1e-007                yes
This is Ipopt version 3.11.0, running with linear solver ma57.

Number of nonzeros in equality constraint Jacobian...:   471575
Number of nonzeros in inequality constraint Jacobian.:    69160
Number of nonzeros in Lagrangian Hessian.............:        0

Total number of variables............................:    32875
                     variables with only lower bounds:        0
                variables with lower and upper bounds:    32875
                     variables with only upper bounds:        0
Total number of equality constraints.................:    26130
Total number of inequality constraints...............:     4918
        inequality constraints with only lower bounds:        0
   inequality constraints with lower and upper bounds:     4918
        inequality constraints with only upper bounds:        0

iter    objective    inf_pr   inf_du lg(mu)  ||d||  lg(rg) alpha_du alpha_pr  ls
   0 -1.1322417e+002 1.74e-001 1.00e+002   0.0 0.00e+000    -  0.00e+000 0.00e+000   0
   1 -1.1331679e+002 5.16e-002 6.66e+001  -4.5 8.16e-001    -  6.68e-001 3.34e-001h  1
   2 -1.1352359e+002 2.40e-002 3.11e+001  -5.0 4.46e-001    -  4.32e-001 5.34e-001h  1
   3 -1.1350156e+002 2.29e-002 2.96e+001  -5.3 1.45e-001    -  7.56e-001 4.58e-002h  1
   4 -1.1314051e+002 5.03e-003 1.10e+001  -5.9 1.37e-001    -  7.58e-001 7.81e-001h  1
   5 -1.1325688e+002 3.81e-003 7.24e+000  -6.5 2.71e-001    -  8.82e-001 2.43e-001h  1
   6 -1.1336947e+002 3.38e-003 1.61e+001  -3.5 1.09e+000    -  8.85e-001 1.12e-001h  1
   7 -1.1454820e+002 6.08e-003 8.38e+000  -3.5 1.96e+000    -  9.90e-001 6.04e-001h  1
   8 -1.1448224e+002 4.79e-002 4.82e+000  -3.5 2.03e+000    -  1.00e+000 7.38e-001h  1
   9 -1.1601897e+002 6.92e-002 1.44e+001  -3.6 6.16e+000    -  4.03e-001 8.66e-001h  1
iter    objective    inf_pr   inf_du lg(mu)  ||d||  lg(rg) alpha_du alpha_pr  ls
  10 -1.1597439e+002 5.23e-002 2.92e+001  -3.5 3.77e+000    -  7.96e-001 2.45e-001h  1
  11 -1.1660653e+002 6.56e-002 3.22e+001  -3.5 6.96e+000    -  9.77e-001 4.98e-001h  1
  12 -1.1444189e+002 4.98e-003 1.07e+001  -3.5 5.62e+000    -  8.03e-001 1.00e+000H  1
  13 -1.1553906e+002 3.34e-002 1.46e+001  -3.6 4.83e+000    -  3.73e-001 6.01e-001h  1
  14 -1.1580785e+002 2.31e-002 1.18e+001  -3.5 5.09e+000    -  7.47e-001 3.08e-001h  1
  15 -1.1638417e+002 8.08e-003 7.45e+000  -3.5 7.79e+000    -  2.36e-001 6.50e-001h  1
  16 -1.1587744e+002 1.44e-002 2.74e+000  -3.6 1.88e+000    -  1.00e+000 1.00e+000h  1
  17 -1.1706095e+002 5.41e-002 1.22e+001  -3.6 8.99e+000    -  1.00e+000 8.93e-001h  1
  18 -1.1676472e+002 9.56e-003 4.26e+000  -3.6 1.02e+001    -  9.40e-001 8.22e-001h  1
  19 -1.1711768e+002 4.19e-002 1.01e+001  -3.6 7.22e+000    -  4.64e-001 1.00e+000h  1
iter    objective    inf_pr   inf_du lg(mu)  ||d||  lg(rg) alpha_du alpha_pr  ls
  20 -1.1703348e+002 4.42e-002 2.89e+000  -3.6 5.29e+000    -  1.00e+000 1.00e+000h  1
  21 -1.1695114e+002 4.55e-002 5.84e+000  -3.6 3.84e+000    -  1.00e+000 7.32e-001h  1
  22 -1.1704917e+002 2.27e-002 6.31e+000  -3.6 2.91e+000    -  4.80e-001 5.00e-001h  1
  23 -1.1702760e+002 1.95e-003 2.91e+000  -3.7 5.55e-001    -  1.00e+000 1.00e+000h  1
  24 -1.1805258e+002 9.48e-003 1.37e+000  -3.8 1.49e+000    -  1.00e+000 1.00e+000h  1
  25 -1.1720990e+002 5.17e-003 1.21e+001  -3.5 2.19e+000    -  1.00e+000 4.54e-001h  1
  26 -1.1744274e+002 7.78e-002 4.44e+000  -3.6 5.75e+000    -  7.04e-001 1.00e+000h  1
  27 -1.1891899e+002 1.54e-002 1.70e+000  -3.7 4.94e+000    -  9.67e-001 1.00e+000h  1
  28 -1.1787466e+002 2.17e-002 1.33e+000  -3.7 3.51e+000    -  1.00e+000 1.00e+000h  1
  29 -1.1848015e+002 1.22e-002 5.63e+000  -3.8 4.53e+000    -  1.00e+000 4.39e-001h  1
iter    objective    inf_pr   inf_du lg(mu)  ||d||  lg(rg) alpha_du alpha_pr  ls
  30 -1.1812978e+002 9.65e-003 8.30e+000  -3.5 8.97e+000    -  4.49e-001 3.04e-001h  1
  31 -1.1822168e+002 8.74e-003 9.54e+000  -3.8 4.74e+000    -  1.00e+000 9.38e-002h  1
  32 -1.1867319e+002 1.08e-002 6.47e+000  -3.8 1.22e+000    -  2.67e-001 1.00e+000h  1
  33 -1.1959598e+002 5.11e-002 3.30e+000  -3.8 4.41e+000    -  1.00e+000 1.00e+000h  1
  34 -1.1983256e+002 3.22e-002 5.43e+000  -3.8 3.78e+000    -  1.00e+000 1.00e+000h  1
  35 -1.1985532e+002 1.39e-002 3.20e+000  -3.9 1.84e+000    -  9.92e-001 5.69e-001h  1
  36 -1.1978034e+002 1.39e-002 3.10e+000  -3.9 2.29e+000    -  8.63e-001 1.00e+000h  1
  37 -1.1996140e+002 5.20e-003 2.01e+000  -3.9 1.54e+000    -  1.00e+000 7.37e-001h  1
  38 -1.2046050e+002 1.57e-002 3.12e+000  -3.9 3.16e+000    -  1.00e+000 1.00e+000h  1
  39 -1.2038516e+002 3.46e-003 9.76e-001  -4.0 1.67e+000    -  1.00e+000 1.00e+000h  1
iter    objective    inf_pr   inf_du lg(mu)  ||d||  lg(rg) alpha_du alpha_pr  ls
  40 -1.2047057e+002 4.21e-003 1.59e+000  -4.0 9.13e-001    -  1.00e+000 1.00e+000h  1
  41 -1.2003450e+002 2.81e-003 7.40e+000  -3.7 1.93e+000    -  1.00e+000 3.47e-001h  1
  42 -1.1982067e+002 1.47e-002 3.28e+000  -3.8 1.19e+000    -  1.00e+000 1.00e+000h  1
  43 -1.2019116e+002 3.69e-002 8.34e+000  -3.8 1.01e+001    -  8.93e-001 7.95e-001h  1
  44 -1.2076727e+002 2.19e-002 2.62e+000  -3.9 2.44e+000    -  5.38e-001 1.00e+000h  1
  45 -1.2153421e+002 3.43e-002 1.02e+000  -3.9 9.53e+000    -  1.00e+000 1.00e+000h  1
  46 -1.2107935e+002 2.67e-003 4.40e+000  -4.0 3.01e+000    -  1.00e+000 1.00e+000h  1
  47 -1.2180137e+002 6.38e-003 1.15e+000  -4.2 2.05e+000    -  1.00e+000 1.00e+000h  1
  48 -1.2055740e+002 8.21e-003 1.19e+000  -3.9 1.44e+000    -  9.49e-001 1.00e+000h  1
  49 -1.2114183e+002 1.52e-002 6.84e+000  -4.0 4.73e+000    -  9.08e-001 9.11e-001h  1
iter    objective    inf_pr   inf_du lg(mu)  ||d||  lg(rg) alpha_du alpha_pr  ls
  50 -1.2148162e+002 9.62e-003 5.15e+000  -4.1 1.81e+000    -  1.00e+000 4.90e-001h  1
  51 -1.2167216e+002 8.60e-003 1.67e+000  -4.1 1.11e+000    -  1.00e+000 1.00e+000h  1
  52 -1.2222549e+002 1.53e-002 1.45e+000  -4.2 1.69e+000    -  1.00e+000 1.00e+000h  1
  53 -1.2240117e+002 3.22e-003 3.11e+000  -4.3 2.22e+000    -  7.01e-001 1.00e+000H  1
  54 -1.2305177e+002 1.98e-002 1.41e+000  -4.6 1.84e+000    -  1.00e+000 1.00e+000h  1
  55 -1.2293827e+002 4.75e-002 4.73e+000  -4.3 4.31e+000    -  1.00e+000 9.83e-001h  1
  56 -1.2289873e+002 5.26e-003 9.73e-001  -4.4 2.50e+000    -  1.00e+000 1.00e+000h  1
